/*The first floor contains a hydrogen-compatible microchip and a lithium-compatible microchip.*/
/*The second floor contains a hydrogen generator.*/
/*The third floor contains a lithium generator.*/
/*The fourth floor contains nothing relevant.*/

Items = {Elevator, HM, HG, LM, LG};
start = [{Elevator, HM, LM}, {HG}, {LG}, {}];

Generators = {HG, LG};
Microchips = {HM, LM};
mappings = [HG, HG, HG, LG, HG];
